1600 3200
1 2 1
1 41 5
2 3 1
2 42 3
3 4 3
3 43 2
4 5 5
4 44 1
5 6 3
5 45 3
6 7 2
6 46 1
7 8 1
7 47 5
8 9 2
8 48 5
9 10 5
9 49 4
10 11 2
10 50 1
11 12 5
11 51 5
12 13 4
12 52 4
13 14 4
13 53 3
14 15 1
14 54 3
15 16 4
15 55 5
16 17 3
16 56 4
17 18 5
17 57 4
18 19 3
18 58 2
19 20 1
19 59 1
20 21 3
20 60 2
21 22 4
21 61 4
22 23 5
22 62 2
23 24 5
23 63 4
24 25 3
24 64 1
25 26 3
25 65 2
26 27 3
26 66 5
27 28 5
27 67 4
28 29 5
28 68 3
29 30 1
29 69 5
30 31 1
30 70 4
31 32 3
31 71 1
32 33 3
32 72 5
33 34 5
33 73 4
34 35 5
34 74 5
35 36 5
35 75 1
36 37 4
36 76 1
37 38 5
37 77 3
38 39 1
38 78 3
39 40 5
39 79 3
40 80 3
41 42 2
41 81 4
42 43 3
42 82 1
43 44 5
43 83 4
44 45 1
44 84 1
45 46 5
45 85 5
46 47 1
46 86 4
47 48 5
47 87 1
48 49 2
48 88 1
49 50 2
49 89 5
50 51 3
50 90 2
51 52 3
51 91 4
52 53 2
52 92 3
53 54 5
53 93 2
54 55 2
54 94 5
55 56 2
55 95 1
56 57 1
56 96 3
57 58 5
57 97 2
58 59 3
58 98 2
59 60 3
59 99 2
60 61 5
60 100 5
61 62 5
61 101 3
62 63 4
62 102 3
63 64 4
63 103 3
64 65 2
64 104 2
65 66 4
65 105 2
66 67 5
66 106 2
67 68 1
67 107 3
68 69 3
68 108 4
69 70 4
69 109 2
70 71 2
70 110 3
71 72 4
71 111 4
72 73 5
72 112 4
73 74 1
73 113 4
74 75 4
74 114 5
75 76 4
75 115 4
76 77 3
76 116 3
77 78 3
77 117 4
78 79 3
78 118 3
79 80 1
79 119 3
80 120 3
81 82 5
81 121 5
82 83 1
82 122 5
83 84 3
83 123 1
84 85 1
84 124 4
85 86 2
85 125 5
86 87 2
86 126 2
87 88 2
87 127 1
88 89 3
88 128 2
89 90 2
89 129 1
90 91 2
90 130 2
91 92 5
91 131 4
92 93 4
92 132 4
93 94 4
93 133 2
94 95 2
94 134 4
95 96 4
95 135 4
96 97 2
96 136 1
97 98 3
97 137 3
98 99 5
98 138 5
99 100 2
99 139 4
100 101 1
100 140 1
101 102 3
101 141 4
102 103 1
102 142 4
103 104 1
103 143 2
104 105 5
104 144 2
105 106 5
105 145 3
106 107 4
106 146 2
107 108 5
107 147 1
108 109 3
108 148 2
109 110 1
109 149 2
110 111 4
110 150 2
111 112 4
111 151 3
112 113 5
112 152 2
113 114 1
113 153 3
114 115 4
114 154 4
115 116 5
115 155 4
116 117 4
116 156 1
117 118 5
117 157 3
118 119 5
118 158 2
119 120 2
119 159 4
120 160 3
121 122 1
121 161 3
122 123 4
122 162 1
123 124 3
123 163 3
124 125 2
124 164 4
125 126 5
125 165 2
126 127 4
126 166 2
127 128 4
127 167 3
128 129 5
128 168 1
129 130 3
129 169 3
130 131 1
130 170 1
131 132 2
131 171 5
132 133 4
132 172 3
133 134 3
133 173 4
134 135 2
134 174 4
135 136 2
135 175 5
136 137 3
136 176 2
137 138 1
137 177 3
138 139 3
138 178 5
139 140 5
139 179 5
140 141 2
140 180 5
141 142 3
141 181 1
142 143 5
142 182 3
143 144 4
143 183 3
144 145 2
144 184 2
145 146 2
145 185 5
146 147 1
146 186 3
147 148 4
147 187 3
148 149 1
148 188 4
149 150 1
149 189 1
150 151 2
150 190 2
151 152 4
151 191 5
152 153 5
152 192 4
153 154 3
153 193 1
154 155 2
154 194 1
155 156 2
155 195 4
156 157 1
156 196 2
157 158 4
157 197 1
158 159 5
158 198 4
159 160 4
159 199 2
160 200 2
161 162 3
161 201 5
162 163 2
162 202 3
163 164 3
163 203 1
164 165 2
164 204 2
165 166 5
165 205 1
166 167 5
166 206 1
167 168 3
167 207 1
168 169 1
168 208 2
169 170 3
169 209 3
170 171 5
170 210 3
171 172 1
171 211 4
172 173 5
172 212 5
173 174 1
173 213 2
174 175 1
174 214 3
175 176 5
175 215 1
176 177 4
176 216 3
177 178 4
177 217 2
178 179 1
178 218 3
179 180 1
179 219 2
180 181 1
180 220 2
181 182 3
181 221 2
182 183 5
182 222 2
183 184 2
183 223 4
184 185 1
184 224 1
185 186 2
185 225 2
186 187 2
186 226 2
187 188 5
187 227 3
188 189 3
188 228 4
189 190 1
189 229 3
190 191 1
190 230 2
191 192 5
191 231 4
192 193 3
192 232 5
193 194 5
193 233 5
194 195 5
194 234 3
195 196 1
195 235 5
196 197 1
196 236 2
197 198 5
197 237 1
198 199 1
198 238 2
199 200 4
199 239 3
200 240 4
201 202 5
201 241 2
202 203 3
202 242 3
203 204 1
203 243 1
204 205 1
204 244 3
205 206 4
205 245 5
206 207 1
206 246 4
207 208 2
207 247 5
208 209 2
208 248 5
209 210 1
209 249 4
210 211 3
210 250 3
211 212 1
211 251 3
212 213 4
212 252 3
213 214 3
213 253 3
214 215 2
214 254 4
215 216 2
215 255 1
216 217 2
216 256 2
217 218 2
217 257 2
218 219 1
218 258 3
219 220 1
219 259 3
220 221 3
220 260 1
221 222 3
221 261 5
222 223 2
222 262 3
223 224 4
223 263 5
224 225 5
224 264 5
225 226 5
225 265 2
226 227 3
226 266 4
227 228 4
227 267 4
228 229 3
228 268 4
229 230 3
229 269 5
230 231 5
230 270 5
231 232 3
231 271 4
232 233 2
232 272 5
233 234 4
233 273 1
234 235 3
234 274 4
235 236 5
235 275 3
236 237 5
236 276 5
237 238 5
237 277 2
238 239 2
238 278 5
239 240 2
239 279 2
240 280 4
241 242 2
241 281 4
242 243 1
242 282 5
243 244 2
243 283 2
244 245 5
244 284 1
245 246 4
245 285 4
246 247 4
246 286 4
247 248 1
247 287 3
248 249 4
248 288 3
249 250 1
249 289 4
250 251 1
250 290 1
251 252 3
251 291 2
252 253 5
252 292 3
253 254 3
253 293 2
254 255 5
254 294 5
255 256 3
255 295 4
256 257 4
256 296 1
257 258 1
257 297 3
258 259 1
258 298 1
259 260 5
259 299 4
260 261 2
260 300 2
261 262 3
261 301 5
262 263 4
262 302 1
263 264 5
263 303 3
264 265 1
264 304 3
265 266 2
265 305 2
266 267 1
266 306 4
267 268 3
267 307 4
268 269 2
268 308 2
269 270 5
269 309 4
270 271 2
270 310 1
271 272 4
271 311 5
272 273 1
272 312 1
273 274 5
273 313 4
274 275 1
274 314 1
275 276 1
275 315 1
276 277 5
276 316 1
277 278 5
277 317 5
278 279 5
278 318 2
279 280 3
279 319 2
280 320 4
281 282 2
281 321 5
282 283 2
282 322 1
283 284 2
283 323 4
284 285 4
284 324 5
285 286 2
285 325 2
286 287 2
286 326 4
287 288 2
287 327 4
288 289 1
288 328 4
289 290 1
289 329 4
290 291 3
290 330 3
291 292 1
291 331 4
292 293 4
292 332 1
293 294 5
293 333 3
294 295 2
294 334 2
295 296 4
295 335 1
296 297 3
296 336 2
297 298 4
297 337 5
298 299 2
298 338 2
299 300 5
299 339 2
300 301 1
300 340 1
301 302 4
301 341 2
302 303 1
302 342 2
303 304 4
303 343 5
304 305 3
304 344 4
305 306 5
305 345 4
306 307 5
306 346 5
307 308 2
307 347 1
308 309 5
308 348 5
309 310 1
309 349 1
310 311 4
310 350 1
311 312 5
311 351 3
312 313 2
312 352 1
313 314 3
313 353 5
314 315 5
314 354 3
315 316 1
315 355 1
316 317 4
316 356 2
317 318 2
317 357 2
318 319 3
318 358 5
319 320 5
319 359 2
320 360 5
321 322 2
321 361 4
322 323 4
322 362 3
323 324 4
323 363 5
324 325 3
324 364 3
325 326 2
325 365 3
326 327 4
326 366 4
327 328 1
327 367 2
328 329 4
328 368 3
329 330 5
329 369 1
330 331 3
330 370 3
331 332 3
331 371 3
332 333 2
332 372 3
333 334 5
333 373 1
334 335 5
334 374 4
335 336 1
335 375 5
336 337 5
336 376 2
337 338 3
337 377 1
338 339 5
338 378 4
339 340 5
339 379 5
340 341 2
340 380 1
341 342 3
341 381 3
342 343 2
342 382 4
343 344 3
343 383 4
344 345 5
344 384 5
345 346 2
345 385 2
346 347 5
346 386 2
347 348 5
347 387 3
348 349 5
348 388 4
349 350 5
349 389 5
350 351 4
350 390 5
351 352 5
351 391 1
352 353 1
352 392 1
353 354 2
353 393 2
354 355 2
354 394 5
355 356 5
355 395 1
356 357 1
356 396 5
357 358 1
357 397 1
358 359 3
358 398 2
359 360 5
359 399 2
360 400 2
361 362 1
361 401 1
362 363 2
362 402 3
363 364 2
363 403 3
364 365 2
364 404 1
365 366 5
365 405 1
366 367 1
366 406 3
367 368 1
367 407 5
368 369 5
368 408 3
369 370 2
369 409 1
370 371 1
370 410 5
371 372 3
371 411 5
372 373 3
372 412 2
373 374 4
373 413 1
374 375 1
374 414 4
375 376 5
375 415 5
376 377 2
376 416 3
377 378 2
377 417 5
378 379 3
378 418 4
379 380 3
379 419 5
380 381 5
380 420 3
381 382 3
381 421 4
382 383 5
382 422 5
383 384 5
383 423 1
384 385 3
384 424 2
385 386 2
385 425 4
386 387 2
386 426 3
387 388 1
387 427 3
388 389 2
388 428 2
389 390 1
389 429 5
390 391 2
390 430 4
391 392 2
391 431 5
392 393 4
392 432 4
393 394 2
393 433 1
394 395 3
394 434 5
395 396 3
395 435 3
396 397 4
396 436 2
397 398 4
397 437 5
398 399 2
398 438 3
399 400 5
399 439 2
400 440 5
401 402 3
401 441 1
402 403 4
402 442 4
403 404 1
403 443 5
404 405 4
404 444 4
405 406 1
405 445 4
406 407 1
406 446 1
407 408 1
407 447 1
408 409 1
408 448 1
409 410 3
409 449 4
410 411 5
410 450 4
411 412 2
411 451 4
412 413 5
412 452 3
413 414 1
413 453 1
414 415 1
414 454 2
415 416 5
415 455 2
416 417 5
416 456 2
417 418 5
417 457 2
418 419 4
418 458 2
419 420 5
419 459 3
420 421 3
420 460 1
421 422 4
421 461 1
422 423 4
422 462 3
423 424 4
423 463 4
424 425 5
424 464 1
425 426 3
425 465 2
426 427 4
426 466 2
427 428 2
427 467 1
428 429 4
428 468 1
429 430 4
429 469 2
430 431 2
430 470 5
431 432 4
431 471 3
432 433 3
432 472 3
433 434 3
433 473 1
434 435 5
434 474 4
435 436 4
435 475 1
436 437 5
436 476 4
437 438 3
437 477 3
438 439 3
438 478 4
439 440 2
439 479 5
440 480 1
441 442 2
441 481 5
442 443 2
442 482 2
443 444 4
443 483 1
444 445 1
444 484 4
445 446 5
445 485 5
446 447 5
446 486 1
447 448 2
447 487 4
448 449 5
448 488 1
449 450 2
449 489 5
450 451 2
450 490 1
451 452 4
451 491 2
452 453 3
452 492 4
453 454 4
453 493 5
454 455 3
454 494 3
455 456 3
455 495 4
456 457 2
456 496 4
457 458 5
457 497 2
458 459 1
458 498 4
459 460 5
459 499 3
460 461 1
460 500 4
461 462 3
461 501 3
462 463 4
462 502 4
463 464 3
463 503 4
464 465 5
464 504 4
465 466 1
465 505 5
466 467 4
466 506 5
467 468 5
467 507 4
468 469 1
468 508 4
469 470 1
469 509 2
470 471 3
470 510 5
471 472 1
471 511 4
472 473 4
472 512 3
473 474 2
473 513 4
474 475 1
474 514 5
475 476 1
475 515 4
476 477 3
476 516 3
477 478 1
477 517 1
478 479 2
478 518 5
479 480 1
479 519 1
480 520 4
481 482 1
481 521 3
482 483 5
482 522 2
483 484 3
483 523 3
484 485 2
484 524 1
485 486 2
485 525 1
486 487 5
486 526 3
487 488 3
487 527 2
488 489 3
488 528 3
489 490 1
489 529 5
490 491 3
490 530 2
491 492 1
491 531 1
492 493 1
492 532 4
493 494 5
493 533 1
494 495 4
494 534 3
495 496 5
495 535 5
496 497 4
496 536 4
497 498 4
497 537 4
498 499 3
498 538 3
499 500 5
499 539 2
500 501 1
500 540 1
501 502 1
501 541 3
502 503 5
502 542 5
503 504 5
503 543 1
504 505 5
504 544 5
505 506 1
505 545 4
506 507 2
506 546 3
507 508 2
507 547 1
508 509 3
508 548 1
509 510 1
509 549 3
510 511 2
510 550 4
511 512 2
511 551 2
512 513 5
512 552 1
513 514 1
513 553 5
514 515 4
514 554 3
515 516 3
515 555 4
516 517 4
516 556 4
517 518 3
517 557 2
518 519 4
518 558 5
519 520 4
519 559 4
520 560 2
521 522 3
521 561 5
522 523 2
522 562 2
523 524 3
523 563 2
524 525 3
524 564 2
525 526 3
525 565 3
526 527 2
526 566 4
527 528 1
527 567 2
528 529 5
528 568 3
529 530 4
529 569 2
530 531 3
530 570 2
531 532 1
531 571 3
532 533 5
532 572 5
533 534 1
533 573 4
534 535 3
534 574 3
535 536 5
535 575 5
536 537 1
536 576 1
537 538 5
537 577 1
538 539 2
538 578 4
539 540 5
539 579 5
540 541 4
540 580 3
541 542 3
541 581 4
542 543 2
542 582 4
543 544 3
543 583 5
544 545 5
544 584 3
545 546 2
545 585 2
546 547 5
546 586 3
547 548 2
547 587 4
548 549 5
548 588 1
549 550 1
549 589 3
550 551 1
550 590 2
551 552 3
551 591 3
552 553 3
552 592 5
553 554 4
553 593 5
554 555 5
554 594 1
555 556 1
555 595 4
556 557 1
556 596 5
557 558 2
557 597 1
558 559 1
558 598 5
559 560 1
559 599 1
560 600 4
561 562 3
561 601 1
562 563 1
562 602 1
563 564 1
563 603 2
564 565 1
564 604 1
565 566 2
565 605 1
566 567 2
566 606 1
567 568 4
567 607 1
568 569 5
568 608 3
569 570 1
569 609 3
570 571 4
570 610 2
571 572 1
571 611 4
572 573 4
572 612 3
573 574 2
573 613 1
574 575 5
574 614 5
575 576 3
575 615 1
576 577 2
576 616 1
577 578 2
577 617 1
578 579 1
578 618 5
579 580 4
579 619 3
580 581 2
580 620 5
581 582 5
581 621 1
582 583 1
582 622 5
583 584 5
583 623 2
584 585 3
584 624 1
585 586 1
585 625 4
586 587 2
586 626 4
587 588 1
587 627 2
588 589 2
588 628 2
589 590 3
589 629 4
590 591 2
590 630 5
591 592 5
591 631 4
592 593 1
592 632 1
593 594 4
593 633 5
594 595 2
594 634 5
595 596 4
595 635 1
596 597 2
596 636 1
597 598 4
597 637 4
598 599 4
598 638 5
599 600 3
599 639 5
600 640 2
601 602 1
601 641 5
602 603 5
602 642 4
603 604 4
603 643 4
604 605 3
604 644 5
605 606 4
605 645 2
606 607 1
606 646 5
607 608 4
607 647 5
608 609 2
608 648 4
609 610 5
609 649 2
610 611 4
610 650 3
611 612 3
611 651 3
612 613 2
612 652 2
613 614 5
613 653 2
614 615 3
614 654 4
615 616 4
615 655 2
616 617 2
616 656 4
617 618 5
617 657 3
618 619 3
618 658 5
619 620 5
619 659 1
620 621 3
620 660 4
621 622 4
621 661 1
622 623 2
622 662 3
623 624 4
623 663 4
624 625 3
624 664 3
625 626 1
625 665 2
626 627 4
626 666 3
627 628 4
627 667 5
628 629 4
628 668 5
629 630 3
629 669 2
630 631 1
630 670 1
631 632 3
631 671 3
632 633 2
632 672 3
633 634 3
633 673 1
634 635 5
634 674 5
635 636 5
635 675 4
636 637 3
636 676 2
637 638 4
637 677 5
638 639 4
638 678 4
639 640 5
639 679 2
640 680 1
641 642 1
641 681 1
642 643 2
642 682 5
643 644 2
643 683 4
644 645 2
644 684 2
645 646 4
645 685 3
646 647 4
646 686 4
647 648 3
647 687 4
648 649 1
648 688 1
649 650 4
649 689 3
650 651 2
650 690 2
651 652 5
651 691 5
652 653 1
652 692 1
653 654 5
653 693 2
654 655 5
654 694 3
655 656 2
655 695 5
656 657 3
656 696 4
657 658 4
657 697 1
658 659 4
658 698 4
659 660 3
659 699 5
660 661 2
660 700 5
661 662 2
661 701 5
662 663 3
662 702 5
663 664 5
663 703 4
664 665 5
664 704 4
665 666 1
665 705 1
666 667 1
666 706 5
667 668 2
667 707 4
668 669 4
668 708 4
669 670 2
669 709 2
670 671 1
670 710 5
671 672 1
671 711 3
672 673 1
672 712 5
673 674 5
673 713 4
674 675 4
674 714 4
675 676 1
675 715 2
676 677 4
676 716 2
677 678 1
677 717 1
678 679 4
678 718 5
679 680 2
679 719 4
680 720 5
681 682 4
681 721 1
682 683 5
682 722 4
683 684 2
683 723 1
684 685 2
684 724 5
685 686 5
685 725 4
686 687 1
686 726 4
687 688 2
687 727 3
688 689 3
688 728 2
689 690 3
689 729 2
690 691 5
690 730 5
691 692 2
691 731 4
692 693 4
692 732 3
693 694 3
693 733 1
694 695 1
694 734 1
695 696 1
695 735 1
696 697 4
696 736 5
697 698 5
697 737 1
698 699 1
698 738 3
699 700 4
699 739 1
700 701 1
700 740 2
701 702 1
701 741 2
702 703 4
702 742 1
703 704 2
703 743 1
704 705 5
704 744 4
705 706 5
705 745 4
706 707 2
706 746 1
707 708 1
707 747 3
708 709 2
708 748 2
709 710 3
709 749 2
710 711 3
710 750 4
711 712 5
711 751 4
712 713 2
712 752 4
713 714 2
713 753 3
714 715 5
714 754 5
715 716 3
715 755 2
716 717 2
716 756 1
717 718 1
717 757 4
718 719 5
718 758 1
719 720 4
719 759 3
720 760 3
721 722 2
721 761 4
722 723 5
722 762 2
723 724 3
723 763 4
724 725 3
724 764 1
725 726 4
725 765 5
726 727 1
726 766 5
727 728 5
727 767 5
728 729 1
728 768 1
729 730 4
729 769 1
730 731 4
730 770 4
731 732 3
731 771 5
732 733 1
732 772 5
733 734 3
733 773 1
734 735 3
734 774 3
735 736 1
735 775 5
736 737 2
736 776 1
737 738 3
737 777 2
738 739 3
738 778 1
739 740 1
739 779 5
740 741 3
740 780 2
741 742 1
741 781 2
742 743 1
742 782 5
743 744 4
743 783 3
744 745 5
744 784 4
745 746 2
745 785 4
746 747 3
746 786 2
747 748 3
747 787 2
748 749 1
748 788 5
749 750 4
749 789 1
750 751 3
750 790 4
751 752 5
751 791 2
752 753 4
752 792 2
753 754 1
753 793 5
754 755 5
754 794 3
755 756 4
755 795 5
756 757 4
756 796 5
757 758 5
757 797 4
758 759 5
758 798 2
759 760 2
759 799 3
760 800 5
761 762 1
761 801 5
762 763 2
762 802 2
763 764 5
763 803 2
764 765 3
764 804 1
765 766 2
765 805 2
766 767 2
766 806 5
767 768 4
767 807 1
768 769 2
768 808 5
769 770 1
769 809 3
770 771 5
770 810 5
771 772 5
771 811 2
772 773 3
772 812 2
773 774 2
773 813 4
774 775 2
774 814 3
775 776 3
775 815 5
776 777 3
776 816 2
777 778 4
777 817 1
778 779 3
778 818 2
779 780 3
779 819 3
780 781 3
780 820 5
781 782 1
781 821 3
782 783 2
782 822 5
783 784 1
783 823 5
784 785 4
784 824 2
785 786 5
785 825 1
786 787 2
786 826 5
787 788 2
787 827 2
788 789 5
788 828 1
789 790 4
789 829 3
790 791 3
790 830 4
791 792 2
791 831 2
792 793 1
792 832 4
793 794 2
793 833 3
794 795 1
794 834 4
795 796 3
795 835 1
796 797 3
796 836 5
797 798 1
797 837 5
798 799 3
798 838 1
799 800 3
799 839 5
800 840 3
801 802 4
801 841 3
802 803 5
802 842 1
803 804 1
803 843 4
804 805 5
804 844 1
805 806 4
805 845 2
806 807 4
806 846 4
807 808 3
807 847 4
808 809 1
808 848 5
809 810 3
809 849 4
810 811 4
810 850 3
811 812 3
811 851 4
812 813 2
812 852 4
813 814 2
813 853 4
814 815 2
814 854 1
815 816 3
815 855 4
816 817 3
816 856 2
817 818 5
817 857 2
818 819 5
818 858 5
819 820 3
819 859 2
820 821 5
820 860 3
821 822 2
821 861 2
822 823 3
822 862 1
823 824 4
823 863 2
824 825 1
824 864 2
825 826 3
825 865 5
826 827 2
826 866 5
827 828 4
827 867 1
828 829 2
828 868 3
829 830 3
829 869 3
830 831 3
830 870 3
831 832 5
831 871 2
832 833 1
832 872 5
833 834 5
833 873 2
834 835 1
834 874 1
835 836 2
835 875 4
836 837 5
836 876 4
837 838 3
837 877 2
838 839 5
838 878 2
839 840 3
839 879 3
840 880 2
841 842 1
841 881 5
842 843 4
842 882 2
843 844 1
843 883 3
844 845 3
844 884 4
845 846 5
845 885 1
846 847 2
846 886 4
847 848 2
847 887 5
848 849 5
848 888 2
849 850 5
849 889 1
850 851 5
850 890 1
851 852 3
851 891 4
852 853 5
852 892 4
853 854 5
853 893 1
854 855 4
854 894 5
855 856 5
855 895 2
856 857 4
856 896 5
857 858 2
857 897 3
858 859 2
858 898 5
859 860 4
859 899 4
860 861 2
860 900 5
861 862 4
861 901 4
862 863 2
862 902 2
863 864 2
863 903 1
864 865 5
864 904 1
865 866 2
865 905 5
866 867 1
866 906 3
867 868 4
867 907 2
868 869 4
868 908 4
869 870 2
869 909 3
870 871 3
870 910 4
871 872 2
871 911 1
872 873 2
872 912 5
873 874 5
873 913 4
874 875 4
874 914 1
875 876 4
875 915 5
876 877 5
876 916 1
877 878 1
877 917 2
878 879 5
878 918 3
879 880 1
879 919 5
880 920 2
881 882 1
881 921 2
882 883 5
882 922 1
883 884 3
883 923 2
884 885 2
884 924 3
885 886 1
885 925 4
886 887 1
886 926 1
887 888 5
887 927 5
888 889 2
888 928 3
889 890 4
889 929 1
890 891 3
890 930 2
891 892 3
891 931 2
892 893 2
892 932 1
893 894 2
893 933 5
894 895 1
894 934 2
895 896 4
895 935 5
896 897 1
896 936 3
897 898 4
897 937 3
898 899 5
898 938 3
899 900 5
899 939 4
900 901 3
900 940 4
901 902 4
901 941 3
902 903 2
902 942 4
903 904 5
903 943 1
904 905 5
904 944 4
905 906 2
905 945 5
906 907 5
906 946 2
907 908 1
907 947 2
908 909 5
908 948 2
909 910 3
909 949 2
910 911 3
910 950 4
911 912 1
911 951 3
912 913 5
912 952 4
913 914 1
913 953 3
914 915 5
914 954 1
915 916 4
915 955 2
916 917 3
916 956 4
917 918 5
917 957 3
918 919 3
918 958 3
919 920 1
919 959 3
920 960 4
921 922 4
921 961 2
922 923 3
922 962 3
923 924 5
923 963 2
924 925 5
924 964 2
925 926 5
925 965 1
926 927 4
926 966 4
927 928 1
927 967 2
928 929 5
928 968 3
929 930 2
929 969 2
930 931 2
930 970 1
931 932 3
931 971 3
932 933 4
932 972 4
933 934 3
933 973 3
934 935 1
934 974 4
935 936 5
935 975 2
936 937 1
936 976 3
937 938 5
937 977 4
938 939 1
938 978 4
939 940 4
939 979 2
940 941 1
940 980 4
941 942 2
941 981 4
942 943 2
942 982 2
943 944 5
943 983 1
944 945 2
944 984 5
945 946 4
945 985 5
946 947 4
946 986 2
947 948 4
947 987 4
948 949 2
948 988 1
949 950 4
949 989 5
950 951 4
950 990 1
951 952 4
951 991 5
952 953 3
952 992 3
953 954 1
953 993 5
954 955 4
954 994 1
955 956 3
955 995 3
956 957 5
956 996 3
957 958 3
957 997 1
958 959 2
958 998 2
959 960 4
959 999 5
960 1000 5
961 962 1
961 1001 2
962 963 2
962 1002 1
963 964 2
963 1003 3
964 965 4
964 1004 2
965 966 4
965 1005 1
966 967 4
966 1006 1
967 968 1
967 1007 1
968 969 3
968 1008 2
969 970 3
969 1009 4
970 971 1
970 1010 1
971 972 3
971 1011 5
972 973 5
972 1012 3
973 974 3
973 1013 3
974 975 1
974 1014 4
975 976 2
975 1015 1
976 977 3
976 1016 1
977 978 5
977 1017 5
978 979 1
978 1018 5
979 980 3
979 1019 5
980 981 5
980 1020 5
981 982 1
981 1021 1
982 983 2
982 1022 3
983 984 3
983 1023 2
984 985 2
984 1024 5
985 986 2
985 1025 3
986 987 2
986 1026 4
987 988 4
987 1027 4
988 989 5
988 1028 3
989 990 5
989 1029 3
990 991 4
990 1030 1
991 992 5
991 1031 2
992 993 1
992 1032 2
993 994 4
993 1033 5
994 995 2
994 1034 1
995 996 3
995 1035 5
996 997 4
996 1036 4
997 998 2
997 1037 1
998 999 2
998 1038 2
999 1000 5
999 1039 5
1000 1040 2
1001 1002 4
1001 1041 3
1002 1003 4
1002 1042 1
1003 1004 2
1003 1043 2
1004 1005 3
1004 1044 3
1005 1006 2
1005 1045 2
1006 1007 5
1006 1046 3
1007 1008 1
1007 1047 1
1008 1009 2
1008 1048 3
1009 1010 4
1009 1049 1
1010 1011 3
1010 1050 2
1011 1012 5
1011 1051 3
1012 1013 4
1012 1052 3
1013 1014 1
1013 1053 2
1014 1015 2
1014 1054 2
1015 1016 5
1015 1055 4
1016 1017 4
1016 1056 2
1017 1018 2
1017 1057 5
1018 1019 4
1018 1058 5
1019 1020 5
1019 1059 2
1020 1021 5
1020 1060 5
1021 1022 2
1021 1061 4
1022 1023 5
1022 1062 5
1023 1024 3
1023 1063 1
1024 1025 4
1024 1064 5
1025 1026 2
1025 1065 1
1026 1027 2
1026 1066 4
1027 1028 5
1027 1067 5
1028 1029 4
1028 1068 2
1029 1030 1
1029 1069 1
1030 1031 4
1030 1070 4
1031 1032 5
1031 1071 1
1032 1033 2
1032 1072 2
1033 1034 4
1033 1073 1
1034 1035 4
1034 1074 3
1035 1036 2
1035 1075 3
1036 1037 1
1036 1076 3
1037 1038 4
1037 1077 5
1038 1039 1
1038 1078 4
1039 1040 4
1039 1079 4
1040 1080 4
1041 1042 4
1041 1081 1
1042 1043 2
1042 1082 3
1043 1044 4
1043 1083 1
1044 1045 1
1044 1084 2
1045 1046 4
1045 1085 4
1046 1047 5
1046 1086 4
1047 1048 5
1047 1087 4
1048 1049 3
1048 1088 1
1049 1050 5
1049 1089 1
1050 1051 4
1050 1090 4
1051 1052 4
1051 1091 2
1052 1053 5
1052 1092 2
1053 1054 2
1053 1093 4
1054 1055 3
1054 1094 1
1055 1056 4
1055 1095 1
1056 1057 2
1056 1096 1
1057 1058 2
1057 1097 3
1058 1059 1
1058 1098 3
1059 1060 5
1059 1099 3
1060 1061 2
1060 1100 3
1061 1062 4
1061 1101 1
1062 1063 5
1062 1102 2
1063 1064 3
1063 1103 1
1064 1065 1
1064 1104 5
1065 1066 1
1065 1105 3
1066 1067 4
1066 1106 5
1067 1068 3
1067 1107 5
1068 1069 5
1068 1108 5
1069 1070 4
1069 1109 3
1070 1071 2
1070 1110 4
1071 1072 2
1071 1111 5
1072 1073 3
1072 1112 3
1073 1074 4
1073 1113 3
1074 1075 3
1074 1114 3
1075 1076 5
1075 1115 5
1076 1077 3
1076 1116 5
1077 1078 1
1077 1117 1
1078 1079 3
1078 1118 3
1079 1080 4
1079 1119 4
1080 1120 2
1081 1082 1
1081 1121 1
1082 1083 2
1082 1122 2
1083 1084 1
1083 1123 1
1084 1085 2
1084 1124 2
1085 1086 3
1085 1125 1
1086 1087 4
1086 1126 5
1087 1088 5
1087 1127 2
1088 1089 1
1088 1128 4
1089 1090 3
1089 1129 4
1090 1091 3
1090 1130 3
1091 1092 3
1091 1131 1
1092 1093 2
1092 1132 1
1093 1094 1
1093 1133 5
1094 1095 3
1094 1134 3
1095 1096 4
1095 1135 2
1096 1097 4
1096 1136 5
1097 1098 3
1097 1137 1
1098 1099 5
1098 1138 2
1099 1100 3
1099 1139 5
1100 1101 4
1100 1140 4
1101 1102 4
1101 1141 1
1102 1103 1
1102 1142 4
1103 1104 1
1103 1143 4
1104 1105 4
1104 1144 2
1105 1106 4
1105 1145 2
1106 1107 5
1106 1146 1
1107 1108 2
1107 1147 1
1108 1109 5
1108 1148 3
1109 1110 1
1109 1149 2
1110 1111 5
1110 1150 2
1111 1112 1
1111 1151 2
1112 1113 3
1112 1152 4
1113 1114 3
1113 1153 2
1114 1115 4
1114 1154 1
1115 1116 2
1115 1155 3
1116 1117 5
1116 1156 3
1117 1118 3
1117 1157 5
1118 1119 4
1118 1158 2
1119 1120 2
1119 1159 5
1120 1160 2
1121 1122 1
1121 1161 1
1122 1123 2
1122 1162 5
1123 1124 2
1123 1163 1
1124 1125 2
1124 1164 1
1125 1126 4
1125 1165 1
1126 1127 4
1126 1166 5
1127 1128 3
1127 1167 1
1128 1129 3
1128 1168 4
1129 1130 5
1129 1169 5
1130 1131 3
1130 1170 1
1131 1132 5
1131 1171 3
1132 1133 4
1132 1172 2
1133 1134 2
1133 1173 2
1134 1135 5
1134 1174 1
1135 1136 4
1135 1175 5
1136 1137 1
1136 1176 5
1137 1138 3
1137 1177 2
1138 1139 1
1138 1178 1
1139 1140 3
1139 1179 3
1140 1141 2
1140 1180 5
1141 1142 5
1141 1181 1
1142 1143 2
1142 1182 5
1143 1144 3
1143 1183 5
1144 1145 1
1144 1184 4
1145 1146 5
1145 1185 1
1146 1147 5
1146 1186 1
1147 1148 4
1147 1187 3
1148 1149 5
1148 1188 1
1149 1150 2
1149 1189 4
1150 1151 3
1150 1190 5
1151 1152 4
1151 1191 4
1152 1153 1
1152 1192 5
1153 1154 5
1153 1193 3
1154 1155 1
1154 1194 2
1155 1156 4
1155 1195 3
1156 1157 4
1156 1196 2
1157 1158 5
1157 1197 2
1158 1159 5
1158 1198 4
1159 1160 5
1159 1199 3
1160 1200 4
1161 1162 5
1161 1201 2
1162 1163 4
1162 1202 4
1163 1164 2
1163 1203 3
1164 1165 2
1164 1204 3
1165 1166 3
1165 1205 2
1166 1167 1
1166 1206 5
1167 1168 5
1167 1207 4
1168 1169 1
1168 1208 4
1169 1170 2
1169 1209 1
1170 1171 4
1170 1210 5
1171 1172 4
1171 1211 5
1172 1173 1
1172 1212 4
1173 1174 2
1173 1213 2
1174 1175 5
1174 1214 5
1175 1176 1
1175 1215 5
1176 1177 4
1176 1216 2
1177 1178 2
1177 1217 4
1178 1179 1
1178 1218 4
1179 1180 2
1179 1219 3
1180 1181 5
1180 1220 1
1181 1182 3
1181 1221 1
1182 1183 5
1182 1222 3
1183 1184 5
1183 1223 2
1184 1185 1
1184 1224 4
1185 1186 5
1185 1225 2
1186 1187 2
1186 1226 2
1187 1188 1
1187 1227 2
1188 1189 1
1188 1228 4
1189 1190 4
1189 1229 1
1190 1191 3
1190 1230 2
1191 1192 4
1191 1231 5
1192 1193 5
1192 1232 1
1193 1194 2
1193 1233 5
1194 1195 1
1194 1234 5
1195 1196 1
1195 1235 1
1196 1197 1
1196 1236 5
1197 1198 3
1197 1237 4
1198 1199 5
1198 1238 2
1199 1200 5
1199 1239 4
1200 1240 1
1201 1202 1
1201 1241 5
1202 1203 2
1202 1242 5
1203 1204 2
1203 1243 2
1204 1205 5
1204 1244 5
1205 1206 3
1205 1245 3
1206 1207 2
1206 1246 4
1207 1208 1
1207 1247 4
1208 1209 4
1208 1248 3
1209 1210 4
1209 1249 5
1210 1211 5
1210 1250 3
1211 1212 2
1211 1251 1
1212 1213 5
1212 1252 5
1213 1214 1
1213 1253 2
1214 1215 5
1214 1254 3
1215 1216 5
1215 1255 1
1216 1217 5
1216 1256 3
1217 1218 1
1217 1257 5
1218 1219 1
1218 1258 5
1219 1220 4
1219 1259 5
1220 1221 4
1220 1260 4
1221 1222 1
1221 1261 1
1222 1223 5
1222 1262 4
1223 1224 4
1223 1263 2
1224 1225 4
1224 1264 5
1225 1226 1
1225 1265 2
1226 1227 3
1226 1266 4
1227 1228 1
1227 1267 4
1228 1229 1
1228 1268 1
1229 1230 3
1229 1269 3
1230 1231 2
1230 1270 5
1231 1232 3
1231 1271 2
1232 1233 5
1232 1272 4
1233 1234 3
1233 1273 5
1234 1235 2
1234 1274 4
1235 1236 3
1235 1275 5
1236 1237 4
1236 1276 5
1237 1238 4
1237 1277 1
1238 1239 1
1238 1278 1
1239 1240 1
1239 1279 5
1240 1280 3
1241 1242 4
1241 1281 4
1242 1243 5
1242 1282 3
1243 1244 2
1243 1283 4
1244 1245 1
1244 1284 3
1245 1246 2
1245 1285 1
1246 1247 5
1246 1286 3
1247 1248 2
1247 1287 2
1248 1249 2
1248 1288 2
1249 1250 2
1249 1289 5
1250 1251 5
1250 1290 3
1251 1252 5
1251 1291 4
1252 1253 1
1252 1292 3
1253 1254 3
1253 1293 1
1254 1255 4
1254 1294 2
1255 1256 3
1255 1295 4
1256 1257 3
1256 1296 4
1257 1258 1
1257 1297 1
1258 1259 3
1258 1298 2
1259 1260 1
1259 1299 3
1260 1261 1
1260 1300 2
1261 1262 5
1261 1301 4
1262 1263 5
1262 1302 5
1263 1264 5
1263 1303 2
1264 1265 3
1264 1304 1
1265 1266 3
1265 1305 5
1266 1267 5
1266 1306 5
1267 1268 3
1267 1307 3
1268 1269 4
1268 1308 3
1269 1270 1
1269 1309 5
1270 1271 2
1270 1310 4
1271 1272 2
1271 1311 5
1272 1273 3
1272 1312 5
1273 1274 3
1273 1313 1
1274 1275 1
1274 1314 1
1275 1276 5
1275 1315 5
1276 1277 4
1276 1316 3
1277 1278 1
1277 1317 3
1278 1279 2
1278 1318 4
1279 1280 3
1279 1319 3
1280 1320 3
1281 1282 5
1281 1321 2
1282 1283 5
1282 1322 2
1283 1284 3
1283 1323 3
1284 1285 4
1284 1324 4
1285 1286 1
1285 1325 5
1286 1287 2
1286 1326 1
1287 1288 3
1287 1327 2
1288 1289 2
1288 1328 2
1289 1290 2
1289 1329 1
1290 1291 2
1290 1330 3
1291 1292 4
1291 1331 5
1292 1293 2
1292 1332 2
1293 1294 4
1293 1333 2
1294 1295 4
1294 1334 2
1295 1296 1
1295 1335 4
1296 1297 3
1296 1336 4
1297 1298 5
1297 1337 4
1298 1299 4
1298 1338 1
1299 1300 1
1299 1339 1
1300 1301 4
1300 1340 2
1301 1302 2
1301 1341 1
1302 1303 1
1302 1342 4
1303 1304 5
1303 1343 4
1304 1305 4
1304 1344 4
1305 1306 3
1305 1345 5
1306 1307 2
1306 1346 3
1307 1308 2
1307 1347 2
1308 1309 2
1308 1348 3
1309 1310 5
1309 1349 2
1310 1311 1
1310 1350 2
1311 1312 3
1311 1351 1
1312 1313 5
1312 1352 5
1313 1314 3
1313 1353 3
1314 1315 4
1314 1354 1
1315 1316 1
1315 1355 1
1316 1317 3
1316 1356 5
1317 1318 5
1317 1357 5
1318 1319 2
1318 1358 5
1319 1320 4
1319 1359 3
1320 1360 3
1321 1322 5
1321 1361 2
1322 1323 4
1322 1362 1
1323 1324 4
1323 1363 1
1324 1325 3
1324 1364 2
1325 1326 2
1325 1365 5
1326 1327 5
1326 1366 1
1327 1328 3
1327 1367 4
1328 1329 5
1328 1368 2
1329 1330 2
1329 1369 4
1330 1331 5
1330 1370 1
1331 1332 5
1331 1371 4
1332 1333 5
1332 1372 3
1333 1334 5
1333 1373 2
1334 1335 5
1334 1374 2
1335 1336 1
1335 1375 1
1336 1337 1
1336 1376 2
1337 1338 5
1337 1377 5
1338 1339 5
1338 1378 4
1339 1340 4
1339 1379 3
1340 1341 2
1340 1380 5
1341 1342 4
1341 1381 3
1342 1343 1
1342 1382 2
1343 1344 3
1343 1383 1
1344 1345 5
1344 1384 3
1345 1346 1
1345 1385 5
1346 1347 1
1346 1386 1
1347 1348 3
1347 1387 1
1348 1349 1
1348 1388 2
1349 1350 1
1349 1389 5
1350 1351 3
1350 1390 2
1351 1352 2
1351 1391 2
1352 1353 3
1352 1392 2
1353 1354 2
1353 1393 1
1354 1355 1
1354 1394 4
1355 1356 3
1355 1395 5
1356 1357 4
1356 1396 2
1357 1358 3
1357 1397 5
1358 1359 1
1358 1398 4
1359 1360 3
1359 1399 5
1360 1400 1
1361 1362 3
1361 1401 1
1362 1363 1
1362 1402 1
1363 1364 3
1363 1403 5
1364 1365 3
1364 1404 2
1365 1366 3
1365 1405 2
1366 1367 3
1366 1406 5
1367 1368 1
1367 1407 4
1368 1369 3
1368 1408 1
1369 1370 4
1369 1409 4
1370 1371 2
1370 1410 1
1371 1372 4
1371 1411 3
1372 1373 2
1372 1412 1
1373 1374 3
1373 1413 3
1374 1375 5
1374 1414 4
1375 1376 2
1375 1415 4
1376 1377 1
1376 1416 4
1377 1378 3
1377 1417 2
1378 1379 3
1378 1418 5
1379 1380 3
1379 1419 4
1380 1381 4
1380 1420 1
1381 1382 3
1381 1421 4
1382 1383 3
1382 1422 4
1383 1384 3
1383 1423 4
1384 1385 1
1384 1424 1
1385 1386 4
1385 1425 3
1386 1387 5
1386 1426 4
1387 1388 3
1387 1427 5
1388 1389 4
1388 1428 1
1389 1390 1
1389 1429 4
1390 1391 3
1390 1430 4
1391 1392 4
1391 1431 5
1392 1393 1
1392 1432 1
1393 1394 2
1393 1433 2
1394 1395 5
1394 1434 4
1395 1396 1
1395 1435 1
1396 1397 3
1396 1436 3
1397 1398 2
1397 1437 2
1398 1399 1
1398 1438 1
1399 1400 1
1399 1439 5
1400 1440 1
1401 1402 4
1401 1441 5
1402 1403 5
1402 1442 1
1403 1404 5
1403 1443 2
1404 1405 3
1404 1444 5
1405 1406 3
1405 1445 5
1406 1407 4
1406 1446 3
1407 1408 3
1407 1447 5
1408 1409 1
1408 1448 3
1409 1410 5
1409 1449 2
1410 1411 3
1410 1450 5
1411 1412 5
1411 1451 2
1412 1413 3
1412 1452 2
1413 1414 1
1413 1453 3
1414 1415 3
1414 1454 5
1415 1416 3
1415 1455 2
1416 1417 1
1416 1456 2
1417 1418 4
1417 1457 3
1418 1419 5
1418 1458 4
1419 1420 1
1419 1459 4
1420 1421 4
1420 1460 3
1421 1422 1
1421 1461 2
1422 1423 5
1422 1462 4
1423 1424 5
1423 1463 2
1424 1425 2
1424 1464 5
1425 1426 5
1425 1465 2
1426 1427 3
1426 1466 3
1427 1428 4
1427 1467 3
1428 1429 5
1428 1468 2
1429 1430 1
1429 1469 1
1430 1431 4
1430 1470 5
1431 1432 5
1431 1471 1
1432 1433 2
1432 1472 5
1433 1434 2
1433 1473 3
1434 1435 4
1434 1474 1
1435 1436 1
1435 1475 1
1436 1437 2
1436 1476 3
1437 1438 4
1437 1477 1
1438 1439 1
1438 1478 2
1439 1440 3
1439 1479 5
1440 1480 2
1441 1442 3
1441 1481 1
1442 1443 5
1442 1482 4
1443 1444 1
1443 1483 4
1444 1445 5
1444 1484 3
1445 1446 5
1445 1485 3
1446 1447 5
1446 1486 5
1447 1448 4
1447 1487 3
1448 1449 2
1448 1488 2
1449 1450 3
1449 1489 3
1450 1451 4
1450 1490 5
1451 1452 5
1451 1491 3
1452 1453 3
1452 1492 2
1453 1454 2
1453 1493 3
1454 1455 3
1454 1494 1
1455 1456 5
1455 1495 3
1456 1457 5
1456 1496 1
1457 1458 1
1457 1497 5
1458 1459 3
1458 1498 3
1459 1460 4
1459 1499 5
1460 1461 4
1460 1500 3
1461 1462 1
1461 1501 1
1462 1463 1
1462 1502 3
1463 1464 4
1463 1503 4
1464 1465 2
1464 1504 2
1465 1466 3
1465 1505 3
1466 1467 2
1466 1506 2
1467 1468 5
1467 1507 4
1468 1469 5
1468 1508 2
1469 1470 1
1469 1509 5
1470 1471 2
1470 1510 1
1471 1472 3
1471 1511 3
1472 1473 3
1472 1512 2
1473 1474 2
1473 1513 4
1474 1475 2
1474 1514 5
1475 1476 4
1475 1515 2
1476 1477 5
1476 1516 1
1477 1478 4
1477 1517 2
1478 1479 2
1478 1518 5
1479 1480 3
1479 1519 3
1480 1520 1
1481 1482 1
1481 1521 3
1482 1483 3
1482 1522 5
1483 1484 5
1483 1523 5
1484 1485 5
1484 1524 5
1485 1486 5
1485 1525 4
1486 1487 5
1486 1526 2
1487 1488 5
1487 1527 3
1488 1489 4
1488 1528 1
1489 1490 4
1489 1529 5
1490 1491 1
1490 1530 5
1491 1492 5
1491 1531 4
1492 1493 3
1492 1532 2
1493 1494 3
1493 1533 3
1494 1495 1
1494 1534 5
1495 1496 5
1495 1535 3
1496 1497 4
1496 1536 3
1497 1498 4
1497 1537 3
1498 1499 2
1498 1538 1
1499 1500 5
1499 1539 2
1500 1501 4
1500 1540 4
1501 1502 2
1501 1541 5
1502 1503 3
1502 1542 5
1503 1504 3
1503 1543 2
1504 1505 1
1504 1544 4
1505 1506 5
1505 1545 5
1506 1507 5
1506 1546 5
1507 1508 1
1507 1547 3
1508 1509 5
1508 1548 4
1509 1510 2
1509 1549 4
1510 1511 5
1510 1550 5
1511 1512 4
1511 1551 2
1512 1513 3
1512 1552 5
1513 1514 3
1513 1553 1
1514 1515 4
1514 1554 5
1515 1516 1
1515 1555 1
1516 1517 2
1516 1556 3
1517 1518 3
1517 1557 2
1518 1519 4
1518 1558 1
1519 1520 5
1519 1559 1
1520 1560 1
1521 1522 4
1521 1561 1
1522 1523 5
1522 1562 5
1523 1524 1
1523 1563 2
1524 1525 1
1524 1564 5
1525 1526 5
1525 1565 3
1526 1527 1
1526 1566 1
1527 1528 4
1527 1567 4
1528 1529 5
1528 1568 4
1529 1530 5
1529 1569 1
1530 1531 1
1530 1570 5
1531 1532 1
1531 1571 2
1532 1533 4
1532 1572 3
1533 1534 4
1533 1573 5
1534 1535 1
1534 1574 3
1535 1536 3
1535 1575 1
1536 1537 2
1536 1576 2
1537 1538 1
1537 1577 4
1538 1539 5
1538 1578 2
1539 1540 3
1539 1579 4
1540 1541 3
1540 1580 3
1541 1542 1
1541 1581 2
1542 1543 1
1542 1582 1
1543 1544 5
1543 1583 4
1544 1545 4
1544 1584 1
1545 1546 1
1545 1585 5
1546 1547 5
1546 1586 3
1547 1548 5
1547 1587 1
1548 1549 3
1548 1588 3
1549 1550 2
1549 1589 3
1550 1551 3
1550 1590 3
1551 1552 4
1551 1591 2
1552 1553 4
1552 1592 3
1553 1554 4
1553 1593 4
1554 1555 4
1554 1594 5
1555 1556 5
1555 1595 4
1556 1557 3
1556 1596 3
1557 1558 1
1557 1597 2
1558 1559 1
1558 1598 3
1559 1560 1
1559 1599 5
1560 1600 4
1561 1562 1
1562 1563 4
1563 1564 3
1564 1565 4
1565 1566 1
1566 1567 2
1567 1568 2
1568 1569 5
1569 1570 5
1570 1571 2
1571 1572 3
1572 1573 5
1573 1574 2
1574 1575 5
1575 1576 3
1576 1577 4
1577 1578 3
1578 1579 1
1579 1580 4
1580 1581 3
1581 1582 3
1582 1583 3
1583 1584 4
1584 1585 5
1585 1586 3
1586 1587 5
1587 1588 5
1588 1589 4
1589 1590 2
1590 1591 4
1591 1592 3
1592 1593 2
1593 1594 1
1594 1595 2
1595 1596 3
1596 1597 2
1597 1598 2
1598 1599 2
1599 1600 4
1 1561 5
2 1562 3
3 1563 3
4 1564 1
5 1565 2
6 1566 5
7 1567 2
8 1568 2
9 1569 3
10 1570 5
11 1571 4
12 1572 5
13 1573 5
14 1574 3
15 1575 5
16 1576 4
17 1577 3
18 1578 1
19 1579 1
20 1580 1
21 1581 2
22 1582 2
23 1583 2
24 1584 1
25 1585 2
26 1586 2
27 1587 2
28 1588 4
29 1589 4
30 1590 5
31 1591 1
32 1592 5
33 1593 3
34 1594 1
35 1595 4
36 1596 3
37 1597 5
38 1598 5
39 1599 5
40 1600 2
1 40 3
41 80 3
81 120 5
121 160 3
161 200 3
201 240 2
241 280 2
281 320 1
321 360 2
361 400 4
401 440 4
441 480 3
481 520 1
521 560 1
561 600 1
601 640 4
641 680 1
681 720 5
721 760 4
761 800 2
801 840 2
841 880 4
881 920 2
921 960 5
961 1000 4
1001 1040 5
1041 1080 5
1081 1120 1
1121 1160 5
1161 1200 4
1201 1240 4
1241 1280 1
1281 1320 5
1321 1360 3
1361 1400 1
1401 1440 5
1441 1480 5
1481 1520 2
1521 1560 2
1561 1600 2
